NAME : rnd15_20.tsp
TYPE : TSP
DIMENSION : 20
EDGE_WEIGHT_TYPE : EUC_2D
NODE_COORD_SECTION
0 993 778
1 510 11
2 691 246
3 477 117
4 175 593
5 533 851
6 54 799
7 972 193
8 201 25
9 605 800
10 834 244
11 539 271
12 429 577
13 568 40
14 916 46
15 885 395
16 253 43
17 638 198
18 698 4
19 91 234
